c ---- [ banner ] ------------------------------------------------------------
c
c Kissat SAT Solver
c 
c Copyright (c) 2021-2024 Armin Biere University of Freiburg
c Copyright (c) 2019-2021 Armin Biere Johannes Kepler University Linz
c 
c Version 4.0.1 43f02cf3e992cb44653b35e5cb26f93281552ae0
c gcc (Ubuntu 13.2.0-23ubuntu4) 13.2.0 -W -Wall -O3 -DNDEBUG
c Thu Sep 12 12:27:46 CEST 2024 Linux abryzen9 6.8.0-41-generic x86_64
c
c ---- [ parsing ] -----------------------------------------------------------
c
c opened and reading DIMACS file:
c
c   /data/artifact/AMulet2.0_artifact/exp4/cnf_dc2_64/64_64_U_SP_CWT_LF_GenMul_dc2.cnf
c
c parsed 'p cnf 37589 150335' header
c closing input after reading 2949721 bytes (3 MB)
c finished parsing after 0.03 seconds
c
c ---- [ options ] -----------------------------------------------------------
c
c --stable=0                       (different from default '1')
c
c ---- [ solving ] -----------------------------------------------------------
c
c  seconds switched rate     size/glue tier1  binary           remaining
c         MB reductions conflicts size  tier2     irredundant
c          level restarts redundant glue  trail           variables
c
c *  0.03 12 0 0 0  0 0   0   0 0.0 0 0 0 0 0% 35314 115019 37586 100%
c (  0.04 13 0 0 0  0 0   0   0 0.0 0 0 0 0 0% 35314 115019 37586 100%
c .  0.05 13 0 0 0  0 0   0   0 0.0 0 0 0 0 0% 35310 115019 37586 100%
c c  0.14 21 0 0 0  0 0   0   0 0.0 0 0 0 0 0% 43689 100094 33396 89%
c d  0.14 22 0 0 0  0 0   0   0 0.0 0 0 0 0 0% 35309 100094 33396 89%
c =  0.20 22 0 0 0  0 0   0   0 0.0 0 0 0 0 0% 35259 100094 32812 87%
c d  0.21 22 0 0 0  0 0   0   0 0.0 0 0 0 0 0% 34091 100094 32812 87%
c f  0.33 20 0 0 0  0 0   0   0 0.0 0 0 0 0 0% 35212 95983 34758 92%
c e  0.46 28 0 0 0  0 0   0   0 0.0 0 0 0 0 0% 24334 104283 25419 68%
c )  0.46 28 0 0 0  0 0   0   0 0.0 0 0 0 0 0% 24334 104283 25419 68%
c {  0.48 28 0 0 0  0 0   0   0 0.0 0 0 2 6 0% 24334 104283 25419 68%
c -  0.64 30 191 0 1 262 39 1000 730 3.3 15 5 3 8 19% 24446 104272 25419 68%
c -  0.76 30 301 0 2 405 43 2000 1483 3.0 13 4 3 9 21% 24515 104268 25419 68%
c c  0.89 23 292 0 2 460 40 2507 1916 2.8 13 5 3 9 23% 25174 103837 24998 67%
c d  0.89 23 292 0 2 460 40 2507 1913 2.8 13 5 3 9 23% 24332 103837 24998 67%
c u  0.91 23 292 0 2 460 40 2507 1402 2.8 13 5 3 9 23% 23092 103837 24998 67%
c v  0.92 23 292 0 2 460 40 2507 1258 2.8 13 5 3 9 23% 23092 103837 24998 67%
c w  0.93 23 292 0 2 460 40 2507 1258 2.8 13 5 3 9 23% 23092 103837 24998 67%
c x  0.95 27 292 0 2 460 40 2507 1257 2.8 13 5 3 9 23% 23197 103447 24998 67%
c =  1.00 27 292 0 2 460 40 2507 1257 2.8 13 5 3 9 23% 23699 103443 24747 66%
c
c  seconds   switched   rate       size/glue tier1    binary           remaining
c         MB  reductions conflicts       size  tier2      irredundant
c           level restarts    redundant    glue   trail           variables
c
c d  1.01 27 292 0 2 460 40 2507 1256 2.8 13 5 3 9 23% 23195 103443 24747 66%
c t  1.01 27 292 0 2 460 40 2507 1256 2.8 13 5 3 9 23% 23173 103443 24747 66%
c f  1.04 27 292 0 2 460 40 2507 1256 2.8 13 5 3 9 23% 23529 102539 25164 67%
c c  1.09 27 292 0 2 460 40 2507 1256 2.8 13 5 3 9 23% 23541 102523 25162 67%
c d  1.10 27 292 0 2 460 40 2507 1256 2.8 13 5 3 9 23% 23537 102523 25162 67%
c u  1.11 27 292 0 2 460 40 2507 1185 2.8 13 5 3 9 23% 23538 102523 25162 67%
c v  1.12 27 292 0 2 460 40 2507 1108 2.8 13 5 3 9 23% 23538 102523 25162 67%
c w  1.13 27 292 0 2 460 40 2507 1105 2.8 13 5 3 9 23% 23538 102523 25162 67%
c x  1.15 27 292 0 2 460 40 2507 1105 2.8 13 5 3 9 23% 23540 102179 25162 67%
c =  1.20 27 292 0 2 460 40 2507 1105 2.8 13 5 3 9 23% 24072 102179 24896 66%
c d  1.21 27 292 0 2 460 40 2507 1101 2.8 13 5 3 9 23% 23514 102179 24896 66%
c t  1.21 27 292 0 2 460 40 2507 1101 2.8 13 5 3 9 23% 23500 102179 24896 66%
c f  1.24 27 292 0 2 460 40 2507 1101 2.8 13 5 3 9 23% 23531 101799 25020 67%
c -  1.42 27 293 0 3 633 39 3414 1682 2.7 13 5 3 9 24% 23571 101795 25020 67%
c -  1.71 27 310 0 4 881 37 5152 2812 2.9 14 5 3 8 25% 23662 101791 25020 67%
c -  2.07 27 317 0 5 1141 38 7152 4032 2.9 14 5 3 8 26% 23775 101777 25020 67%
c d  2.19 27 309 0 5 1209 38 7717 4464 2.9 14 5 3 8 26% 23793 101769 25003 67%
c u  2.22 27 309 0 5 1209 38 7717 3393 2.9 14 5 3 8 26% 23798 101769 25003 67%
c v  2.24 27 309 0 5 1209 38 7717 3081 2.9 14 5 3 8 26% 23798 101769 25003 67%
c w  2.27 27 309 0 5 1209 38 7717 3074 2.9 14 5 3 8 26% 23798 101769 25003 67%
c
c  seconds   switched    rate       size/glue tier1    binary           remaining
c         MB  reductions  conflicts       size  tier2      irredundant
c           level  restarts    redundant    glue   trail           variables
c
c x  2.29 27 309 0 5 1209 38 7717 3074 2.9 14 5 3 8 26% 23800 101121 25003 67%
c =  2.42 27 309 0 5 1209 38 7717 3074 2.9 14 5 3 8 26% 25382 101121 24212 64%
c d  2.43 27 309 0 5 1209 38 7717 3020 2.9 14 5 3 8 26% 23759 101121 24212 64%
c t  2.45 27 309 0 5 1209 38 7717 3020 2.9 14 5 3 8 26% 23615 101121 24212 64%
c f  2.49 27 309 0 5 1209 38 7717 3020 2.9 14 5 3 8 26% 24144 99442 24745 66%
c c  2.55 27 309 0 5 1209 38 7717 3018 2.9 14 5 3 8 26% 24156 99416 24739 66%
c d  2.56 27 309 0 5 1209 38 7717 3018 2.9 14 5 3 8 26% 24144 99416 24739 66%
c u  2.58 27 309 0 5 1209 38 7717 2808 2.9 14 5 3 8 26% 24140 99416 24739 66%
c v  2.60 27 309 0 5 1209 38 7717 2737 2.9 14 5 3 8 26% 24140 99416 24739 66%
c w  2.62 27 309 0 5 1209 38 7717 2734 2.9 14 5 3 8 26% 24140 99416 24739 66%
c x  2.66 27 309 0 5 1209 38 7717 2734 2.9 14 5 3 8 26% 24163 98017 24739 66%
c =  2.78 27 309 0 5 1209 38 7717 2734 2.9 14 5 3 8 26% 25091 98017 24275 65%
c d  2.79 27 309 0 5 1209 38 7717 2715 2.9 14 5 3 8 26% 23934 98017 24275 65%
c t  2.80 27 309 0 5 1209 38 7717 2715 2.9 14 5 3 8 26% 23838 98017 24275 65%
c f  2.85 27 309 0 5 1209 38 7717 2715 2.9 14 5 3 8 26% 24368 96490 24891 66%
c -  3.12 27 307 0 6 1378 36 9388 3748 2.8 14 5 3 8 28% 24454 96483 24891 66%
c o  3.26 27 299 0 6 1451 36 10001 4270 2.9 14 5 3 8 28% 24474 96483 24891 66%
c -  3.53 27 285 0 7 1648 35 11837 5306 3.0 15 5 3 7 29% 24551 96480 24891 66%
c s  3.78 27 281 0 7 1780 35 12527 5941 3.1 17 6 3 7 29% 24575 90311 24891 66%
c e  3.88 27 281 0 7 1780 35 12527 5941 3.1 17 6 3 7 29% 21383 92877 22474 60%
c
c  seconds   switched    rate        size/glue tier1    binary          remaining
c         MB  reductions   conflicts       size  tier2      irredundant
c           level  restarts     redundant    glue   trail          variables
c
c 2  3.88 27 281 0 7 1780 35 12527 5941 3.1 17 6 3 7 29% 21375 92877 22474 60%
c s  3.89 27 281 0 7 1780 35 12527 5941 3.1 17 6 3 7 29% 21394 92169 22474 60%
c e  3.90 27 281 0 7 1780 35 12527 5941 3.1 17 6 3 7 29% 20833 92477 22185 59%
c ^  3.90 27 281 0 7 1780 35 12527 5941 3.1 17 6 3 7 29% 20833 92477 22185 59%
c -  4.43 27 275 0 8 1970 34 14485 5708 3.1 17 6 2 7 28% 20935 92470 22185 59%
c d  4.76 27 265 0 8 2095 33 15803 6881 3.2 18 6 2 7 29% 20906 92470 22149 59%
c u  4.81 27 265 0 8 2095 33 15803 5824 3.2 18 6 2 7 29% 20911 92470 22149 59%
c v  4.88 27 265 0 8 2095 33 15803 4959 3.2 18 6 2 7 29% 20915 92470 22149 59%
c w  4.95 27 265 0 8 2095 33 15803 4957 3.2 18 6 2 7 29% 20915 92470 22149 59%
c x  5.00 27 265 0 8 2095 33 15803 4952 3.2 18 6 2 7 29% 20970 91724 22149 59%
c =  5.23 27 265 0 8 2095 33 15803 4952 3.2 18 6 2 7 29% 21410 91724 21929 58%
c d  5.24 27 265 0 8 2095 33 15803 4932 3.2 18 6 2 7 29% 20861 91724 21929 58%
c t  5.27 27 265 0 8 2095 33 15803 4932 3.2 18 6 2 7 29% 20809 91724 21929 58%
c f  5.36 27 265 0 8 2095 33 15803 4932 3.2 18 6 2 7 29% 20839 91590 21969 58%
c u  5.41 27 265 0 8 2095 33 15803 4682 3.2 18 6 2 7 29% 20843 91590 21969 58%
c v  5.46 27 265 0 8 2095 33 15803 4497 3.2 18 6 2 7 29% 20843 91590 21969 58%
c w  5.54 27 265 0 8 2095 33 15803 4470 3.2 18 6 2 7 29% 20843 91590 21969 58%
c x  5.58 27 265 0 8 2095 33 15803 4467 3.2 18 6 2 7 29% 20897 90882 21969 58%
c =  5.78 27 265 0 8 2095 33 15803 4467 3.2 18 6 2 7 29% 21639 90882 21598 57%
c d  5.79 27 265 0 8 2095 33 15803 4404 3.2 18 6 2 7 29% 20799 90882 21598 57%
c
c  seconds   switched    rate        size/glue tier1    binary          remaining
c         MB  reductions   conflicts       size  tier2      irredundant
c           level  restarts     redundant    glue   trail          variables
c
c t  5.82 27 265 0 8 2095 33 15803 4404 3.2 18 6 2 7 29% 20759 90882 21598 57%
c f  5.85 27 265 0 8 2095 33 15803 4404 3.2 18 6 2 7 29% 20727 90827 21611 57%
c -  6.06 27 266 0 9 2162 32 17314 4962 3.2 18 6 2 7 28% 20771 90827 21611 57%
c o  6.66 27 261 0 9 2381 31 20002 7306 3.1 17 6 2 7 28% 20852 90827 21611 57%
c -  6.83 27 260 0 10 2455 32 20314 6663 3.1 18 6 2 7 28% 20859 90827 21611 57%
c -  7.76 27 251 0 11 2814 32 23476 8228 3.2 19 6 2 7 29% 20958 90823 21611 57%
c s  8.02 27 248 0 11 2944 32 25033 9664 3.2 19 6 2 7 29% 20995 89288 21611 57%
c e  8.12 27 248 0 11 2944 32 25033 9664 3.2 19 6 2 7 29% 17405 94498 19582 52%
c 2  8.12 27 248 0 11 2944 32 25033 9664 3.2 19 6 2 7 29% 17390 94498 19582 52%
c s  8.14 27 248 0 11 2944 32 25033 9664 3.2 19 6 2 7 29% 17481 92668 19582 52%
c e  8.15 27 248 0 11 2944 32 25033 9664 3.2 19 6 2 7 29% 17449 92713 19564 52%
c ^  8.15 27 248 0 11 2944 32 25033 9664 3.2 19 6 2 7 29% 17449 92713 19564 52%
c -  8.31 27 257 0 12 3024 31 26792 8389 3.2 19 6 2 7 29% 17528 92711 19564 52%
c c  8.39 27 256 0 12 3038 31 26933 8516 3.2 19 6 2 7 29% 17543 92665 19556 52%
c d  8.39 27 256 0 12 3038 31 26933 8509 3.2 19 6 2 7 29% 17494 92665 19536 52%
c u  8.42 27 256 0 12 3038 31 26933 7248 3.2 19 6 2 7 29% 17518 92665 19536 52%
c v  8.46 27 256 0 12 3038 31 26933 6335 3.2 19 6 2 7 29% 17521 92665 19536 52%
c w  8.46 27 256 0 12 3038 31 26933 6333 3.2 19 6 2 7 29% 17521 92665 19536 52%
c x  8.52 27 256 0 12 3038 31 26933 6329 3.2 19 6 2 7 29% 17569 91978 19536 52%
c =  8.70 27 256 0 12 3038 31 26933 6329 3.2 19 6 2 7 29% 18405 91978 19118 51%
c
c  seconds   switched     rate        size/glue tier1    binary          remaining
c         MB   reductions   conflicts       size  tier2      irredundant
c           level   restarts     redundant    glue   trail          variables
c
c d  8.71 27 256 0 12 3038 31 26933 6269 3.2 19 6 2 7 29% 17541 91978 19117 51%
c t  8.72 27 256 0 12 3038 31 26933 6269 3.2 19 6 2 7 29% 17404 91978 19117 51%
c f  8.79 27 256 0 12 3038 31 26933 6269 3.2 19 6 2 7 29% 17596 91273 19250 51%
c u  8.83 27 256 0 12 3038 31 26933 5982 3.2 19 6 2 7 29% 17600 91273 19250 51%
c v  8.85 27 256 0 12 3038 31 26933 5789 3.2 19 6 2 7 29% 17601 91273 19250 51%
c w  8.86 27 256 0 12 3038 31 26933 5784 3.2 19 6 2 7 29% 17601 91273 19250 51%
c x  8.93 27 256 0 12 3038 31 26933 5781 3.2 19 6 2 7 29% 17620 89716 19250 51%
c =  9.13 27 256 0 12 3038 31 26933 5781 3.2 19 6 2 7 29% 19786 89716 18167 48%
c d  9.14 27 256 0 12 3038 31 26933 5629 3.2 19 6 2 7 29% 17562 89716 18167 48%
c t  9.15 27 256 0 12 3038 31 26933 5629 3.2 19 6 2 7 29% 17343 89716 18167 48%
c f  9.20 27 256 0 12 3038 31 26933 5629 3.2 19 6 2 7 29% 17441 89143 18280 49%
c -  9.56 27 259 0 13 3269 30 30257 7552 3.1 18 6 2 7 28% 17522 89143 18280 49%
c -  9.87 27 254 0 14 3492 29 33863 9571 3.1 18 6 2 6 28% 17628 89141 18280 49%
c - 10.28 27 244 0 15 3797 28 37605 11304 3.1 18 6 2 6 27% 17687 89140 18280 49%
c o 10.50 27 244 0 15 3953 27 40041 13403 3.0 17 6 2 6 27% 17757 89140 18280 49%
c d 10.74 27 241 0 15 4135 28 41260 14426 3.1 18 6 2 6 27% 17728 89140 18251 49%
c u 10.79 27 241 0 15 4135 28 41260 12265 3.1 18 6 2 6 27% 17755 89140 18251 49%
c v 10.83 27 241 0 15 4135 28 41260 11519 3.1 18 6 2 6 27% 17758 89140 18251 49%
c w 10.86 27 241 0 15 4135 28 41260 11519 3.1 18 6 2 6 27% 17758 89140 18251 49%
c x 10.91 27 241 0 15 4135 28 41260 11519 3.1 18 6 2 6 27% 17758 83664 18251 49%
c
c  seconds   switched     rate         size/glue tier1    binary          remaining
c         MB   reductions   conflicts        size  tier2      irredundant
c           level   restarts      redundant    glue   trail          variables
c
c = 11.07 29 241 0 15 4135 28 41260 11519 3.1 18 6 2 6 27% 19244 83656 17508 47%
c d 11.08 29 241 0 15 4135 28 41260 11399 3.1 18 6 2 6 27% 17711 83656 17508 47%
c t 11.10 29 241 0 15 4135 28 41260 11399 3.1 18 6 2 6 27% 17461 83656 17508 47%
c f 11.12 29 241 0 15 4135 28 41260 11399 3.1 18 6 2 6 27% 17510 83335 17567 47%
c u 11.17 29 241 0 15 4135 28 41260 10884 3.1 18 6 2 6 27% 17515 83335 17567 47%
c v 11.21 29 241 0 15 4135 28 41260 10067 3.1 18 6 2 6 27% 17516 83335 17567 47%
c w 11.24 29 241 0 15 4135 28 41260 10067 3.1 18 6 2 6 27% 17516 83335 17567 47%
c x 11.28 29 241 0 15 4135 28 41260 10065 3.1 18 6 2 6 27% 17517 79388 17567 47%
c = 11.42 29 241 0 15 4135 28 41260 10065 3.1 18 6 2 6 27% 17617 79388 17517 47%
c d 11.43 29 241 0 15 4135 28 41260 10052 3.1 18 6 2 6 27% 17479 79388 17517 47%
c t 11.45 29 241 0 15 4135 28 41260 10052 3.1 18 6 2 6 27% 17471 79388 17517 47%
c f 11.46 29 241 0 15 4135 28 41260 10052 3.1 18 6 2 6 27% 17475 79369 17522 47%
c - 11.48 29 240 0 16 4147 28 41477 8995 3.1 18 6 2 6 27% 17480 79369 17522 47%
c - 11.87 29 243 0 17 4409 27 45479 11029 3.1 18 6 2 6 26% 17561 79366 17522 47%
c - 12.34 29 236 0 18 4760 26 49602 13117 3.0 18 6 2 6 26% 17633 79365 17522 47%
c s 12.53 29 234 0 18 4866 26 52144 15209 3.0 18 6 2 6 26% 17707 76471 17522 47%
c e 12.61 29 234 0 18 4866 26 52144 15209 3.0 18 6 2 6 26% 15817 79815 16442 44%
c 2 12.61 29 234 0 18 4866 26 52144 15209 3.0 18 6 2 6 26% 15799 79815 16442 44%
c s 12.62 29 234 0 18 4866 26 52144 15209 3.0 18 6 2 6 26% 15852 79264 16442 44%
c e 12.63 29 234 0 18 4866 26 52144 15209 3.0 18 6 2 6 26% 15818 79319 16427 44%
c
c  seconds   switched     rate         size/glue tier1    binary          remaining
c         MB   reductions   conflicts        size  tier2      irredundant
c           level   restarts      redundant    glue   trail          variables
c
c ^ 12.63 29 234 0 18 4866 26 52144 15209 3.0 18 6 2 6 26% 15818 79319 16427 44%
c - 12.85 29 231 0 19 5001 26 53844 13658 3.0 17 6 2 6 26% 15853 79317 16427 44%
c - 13.26 29 221 0 20 5321 25 58203 15359 2.9 17 6 2 6 26% 15950 79315 16427 44%
c c 13.47 29 220 0 20 5445 25 58887 15992 3.0 17 6 2 6 26% 16003 79132 16385 44%
c d 13.48 29 220 0 20 5445 25 58887 15830 3.0 17 6 2 6 26% 15916 79132 16383 44%
c u 13.53 29 220 0 20 5445 25 58887 13220 3.0 17 6 2 6 26% 15925 79132 16383 44%
c v 13.57 29 220 0 20 5445 25 58887 12267 3.0 17 6 2 6 26% 15927 79132 16383 44%
c w 13.60 29 220 0 20 5445 25 58887 12267 3.0 17 6 2 6 26% 15927 79132 16383 44%
c x 13.65 29 220 0 20 5445 25 58887 12267 3.0 17 6 2 6 26% 15935 78990 16383 44%
c = 13.86 29 220 0 20 5445 25 58887 12267 3.0 17 6 2 6 26% 17177 78990 15762 42%
c d 13.87 29 220 0 20 5445 25 58887 11793 3.0 17 6 2 6 26% 15851 78990 15762 42%
c t 13.88 29 220 0 20 5445 25 58887 11793 3.0 17 6 2 6 26% 15582 78990 15762 42%
c f 13.94 29 220 0 20 5445 25 58887 11793 3.0 17 6 2 6 26% 15745 78426 15836 42%
c u 13.99 29 220 0 20 5445 25 58887 10840 3.0 17 6 2 6 26% 15751 78426 15836 42%
c v 14.03 29 220 0 20 5445 25 58887 10186 3.0 17 6 2 6 26% 15751 78426 15836 42%
c w 14.08 29 220 0 20 5445 25 58887 10183 3.0 17 6 2 6 26% 15751 78426 15836 42%
c x 14.13 30 220 0 20 5445 25 58887 10168 3.0 17 6 2 6 26% 15855 75058 15836 42%
c = 14.32 30 220 0 20 5445 25 58887 10168 3.0 17 6 2 6 26% 16063 75058 15732 42%
c d 14.33 30 220 0 20 5445 25 58887 10126 3.0 17 6 2 6 26% 15848 75058 15732 42%
c t 14.34 30 220 0 20 5445 25 58887 10126 3.0 17 6 2 6 26% 15799 75058 15732 42%
c
c  seconds   switched     rate         size/glue tier1    binary          remaining
c         MB   reductions   conflicts        size  tier2      irredundant
c           level   restarts      redundant    glue   trail          variables
c
c f 14.36 30 220 0 20 5445 25 58887 10126 3.0 17 6 2 6 26% 15807 75002 15740 42%
c - 14.68 30 214 0 21 5672 24 62676 12127 2.9 17 6 2 6 26% 15869 74999 15740 42%
c - 15.20 30 211 0 22 6079 24 67260 14690 2.9 17 6 2 6 26% 15942 74998 15740 42%
c o 15.43 30 210 0 22 6234 24 70050 17124 2.9 17 6 2 6 26% 15999 74998 15740 42%
c - 15.76 30 208 0 23 6474 24 71950 16766 2.9 17 6 2 5 26% 16019 74998 15740 42%
c - 16.42 30 201 0 24 6956 24 76745 18589 2.9 18 6 2 5 26% 16084 74998 15740 42%
c c 16.81 30 198 0 24 7248 24 79944 21351 2.9 17 6 2 5 26% 16167 74826 15694 42%
c d 16.81 30 198 0 24 7248 24 79944 21090 2.9 17 6 2 5 26% 16075 74826 15694 42%
c u 16.88 30 198 0 24 7248 24 79944 17752 2.9 17 6 2 5 26% 16109 74826 15694 42%
c v 16.93 30 198 0 24 7248 24 79944 16427 2.9 17 6 2 5 26% 16115 74826 15694 42%
c w 16.97 30 198 0 24 7248 24 79944 16427 2.9 17 6 2 5 26% 16115 74826 15694 42%
c x 17.04 30 198 0 24 7248 24 79944 16419 2.9 17 6 2 5 26% 16269 73239 15694 42%
c d 17.07 30 198 0 24 7248 24 79944 16397 2.9 17 6 2 5 26% 16241 73239 15680 42%
c t 17.08 30 198 0 24 7248 24 79944 16397 2.9 17 6 2 5 26% 16160 73239 15680 42%
c f 17.10 30 198 0 24 7248 24 79944 16397 2.9 17 6 2 5 26% 16165 73217 15683 42%
c c 17.14 30 198 0 24 7248 24 79944 16335 2.9 17 6 2 5 26% 16191 73119 15670 42%
c d 17.15 30 198 0 24 7248 24 79944 16335 2.9 17 6 2 5 26% 16165 73119 15670 42%
c u 17.21 30 198 0 24 7248 24 79944 15214 2.9 17 6 2 5 26% 16187 73119 15670 42%
c v 17.25 30 198 0 24 7248 24 79944 14498 2.9 17 6 2 5 26% 16189 73119 15670 42%
c w 17.30 30 198 0 24 7248 24 79944 14470 2.9 17 6 2 5 26% 16189 73119 15670 42%
c
c  seconds   switched     rate         size/glue tier1    binary          remaining
c         MB   reductions   conflicts        size  tier2      irredundant
c           level   restarts      redundant    glue   trail          variables
c
c x 17.36 30 198 0 24 7248 24 79944 14463 2.9 17 6 2 5 26% 16283 72396 15670 42%
c d 17.36 30 198 0 24 7248 24 79944 14452 2.9 17 6 2 5 26% 16271 72396 15664 42%
c t 17.38 30 198 0 24 7248 24 79944 14452 2.9 17 6 2 5 26% 16240 72396 15664 42%
c f 17.39 30 198 0 24 7248 24 79944 14452 2.9 17 6 2 5 26% 16244 72381 15666 42%
c - 17.63 30 196 0 25 7439 24 81643 14253 2.9 17 6 2 5 26% 16267 72381 15666 42%
c - 18.25 30 191 0 26 7919 23 86643 16783 2.9 17 6 2 5 27% 16327 72380 15666 42%
c - 19.04 30 188 0 27 8510 23 91743 19145 2.9 18 6 2 5 27% 16387 72380 15666 42%
c s 19.44 30 184 0 27 8838 23 95799 22627 2.9 18 6 2 5 26% 16466 71978 15666 42%
c e 19.55 30 184 0 27 8838 23 95799 22627 2.9 18 6 2 5 26% 12117 83383 13457 36%
c 2 19.55 30 184 0 27 8838 23 95799 22627 2.9 18 6 2 5 26% 12106 83383 13457 36%
c s 19.58 30 184 0 27 8838 23 95799 22627 2.9 18 6 2 5 26% 12148 82218 13457 36%
c e 19.60 30 184 0 27 8838 23 95799 22627 2.9 18 6 2 5 26% 12029 82453 13413 36%
c ^ 19.60 30 184 0 27 8838 23 95799 22627 2.9 18 6 2 5 26% 12029 82453 13413 36%
c - 19.75 30 184 0 28 8926 23 96944 14925 2.9 18 6 2 5 26% 12042 82452 13413 36%
c - 20.38 30 182 0 29 9489 23 102235 17511 2.9 18 6 2 5 27% 12087 82452 13413 36%
c d 20.67 30 180 0 29 9788 23 104557 19572 2.8 18 6 2 5 27% 12079 82452 13399 36%
c u 20.74 30 180 0 29 9788 23 104557 16510 2.8 18 6 2 5 27% 12109 82452 13399 36%
c v 20.79 30 180 0 29 9788 23 104557 14788 2.8 18 6 2 5 27% 12110 82452 13399 36%
c w 20.87 30 180 0 29 9788 23 104557 14728 2.8 18 6 2 5 27% 12110 82452 13399 36%
c x 20.93 30 180 0 29 9788 23 104557 14727 2.8 18 6 2 5 27% 12124 82274 13399 36%
c
c  seconds   switched     rate          size/glue tier1    binary          remaining
c         MB   reductions   conflicts         size  tier2      irredundant
c           level   restarts       redundant    glue   trail          variables
c
c = 21.30 30 180 0 29 9788 23 104557 14727 2.8 18 6 2 5 27% 12804 82269 13059 35%
c d 21.31 30 180 0 29 9788 23 104557 14116 2.8 18 6 2 5 27% 12023 82269 13059 35%
c t 21.32 30 180 0 29 9788 23 104557 14116 2.8 18 6 2 5 27% 11917 82269 13059 35%
c f 21.41 30 180 0 29 9788 23 104557 14116 2.8 18 6 2 5 27% 11969 81967 13085 35%
c u 21.50 30 180 0 29 9788 23 104557 13248 2.8 18 6 2 5 27% 11977 81967 13085 35%
c v 21.53 30 180 0 29 9788 23 104557 12860 2.8 18 6 2 5 27% 11977 81967 13085 35%
c w 21.61 30 180 0 29 9788 23 104557 12612 2.8 18 6 2 5 27% 11977 81967 13085 35%
c = 21.97 30 180 0 29 9788 23 104557 12612 2.8 18 6 2 5 27% 12167 81913 12985 35%
c d 21.98 30 180 0 29 9788 23 104557 12522 2.8 18 6 2 5 27% 11970 81913 12985 35%
c t 21.99 30 180 0 29 9788 23 104557 12522 2.8 18 6 2 5 27% 11942 81913 12985 35%
c f 22.00 30 180 0 29 9788 23 104557 12522 2.8 18 6 2 5 27% 11948 81875 12988 35%
c - 22.33 30 177 0 30 10003 23 107621 13845 2.8 18 6 2 5 27% 11979 81874 12988 35%
c o 22.67 30 176 0 30 10276 23 110239 16278 2.8 18 6 2 5 27% 11994 81874 12988 35%
c i 22.86 30 176 0 30 10435 23 112039 17825 2.8 18 6 2 5 27% 12029 81873 12987 35%
c - 23.02 30 175 0 31 10554 23 113099 16840 2.8 18 6 2 5 27% 12031 81872 12987 35%
c - 23.90 30 172 0 32 11260 23 118667 19369 2.8 18 6 2 5 27% 12062 81871 12987 35%
c i 24.64 30 170 0 32 11829 23 123546 23849 2.8 19 7 2 5 28% 12096 81869 12986 35%
c i 24.64 30 170 0 32 11829 23 123659 23906 2.8 19 7 2 5 28% 12104 81869 12985 35%
c - 24.73 30 170 0 33 11892 23 124324 21396 2.8 19 7 2 5 28% 12101 81869 12985 35%
c i 24.78 30 170 0 33 11930 23 124768 21782 2.8 19 7 2 5 28% 12107 81869 12984 35%
c
c  seconds   switched      rate          size/glue tier1    binary          remaining
c         MB   reductions    conflicts         size  tier2      irredundant
c           level   restarts        redundant    glue   trail          variables
c
c i 24.87 30 168 0 33 11999 23 126148 23035 2.8 19 7 2 5 27% 12123 81867 12981 35%
c i 25.02 30 167 0 33 12097 23 127733 24384 2.8 18 7 2 5 27% 12143 81862 12980 35%
c i 25.15 30 166 0 33 12193 23 128633 25205 2.8 19 7 2 5 27% 12152 81862 12979 35%
c i 25.15 30 166 0 33 12193 23 128722 25266 2.8 19 7 2 5 27% 12154 81862 12978 35%
c i 25.15 30 166 0 33 12193 23 128810 25308 2.8 18 7 2 5 27% 12158 81862 12977 35%
c i 25.15 30 166 0 33 12193 23 128872 25333 2.8 18 7 2 5 27% 12161 81862 12976 35%
c i 25.15 30 166 0 33 12193 23 128918 25355 2.8 18 7 2 5 27% 12168 81862 12975 35%
c i 25.21 30 167 0 33 12240 23 129277 25658 2.8 19 7 2 5 27% 12174 81862 12974 35%
c - 25.34 30 166 0 34 12324 23 130068 22685 2.8 19 7 2 5 27% 12150 81862 12974 35%
c i 25.39 30 165 0 34 12353 22 130661 23238 2.8 19 7 2 5 27% 12155 81862 12973 35%
c d 25.70 30 164 0 34 12613 23 132786 25199 2.8 19 7 2 5 27% 12183 81723 12966 34%
c d 25.70 30 164 0 34 12613 23 132786 25174 2.8 19 7 2 5 27% 12151 81723 12950 34%
c u 25.79 30 164 0 34 12613 23 132786 21455 2.8 19 7 2 5 27% 12182 81723 12948 34%
c v 25.87 30 164 0 34 12613 23 132786 19199 2.8 19 7 2 5 27% 12186 81723 12948 34%
c w 25.92 30 164 0 34 12613 23 132786 19185 2.8 19 7 2 5 27% 12186 81723 12948 34%
c x 26.01 30 164 0 34 12613 23 132786 19157 2.8 19 7 2 5 27% 12209 79169 12948 34%
c = 26.47 30 164 0 34 12613 23 132786 19157 2.8 19 7 2 5 27% 12397 78878 12822 34%
c d 26.47 30 164 0 34 12613 23 132786 18738 2.8 19 7 2 5 27% 12202 78877 12822 34%
c t 26.48 30 164 0 34 12613 23 132786 18738 2.8 19 7 2 5 27% 12101 78877 12822 34%
c f 26.50 30 164 0 34 12613 23 132786 18738 2.8 19 7 2 5 27% 12102 78865 12823 34%
c
c  seconds   switched      rate          size/glue tier1    binary          remaining
c         MB   reductions    conflicts         size  tier2      irredundant
c           level   restarts        redundant    glue   trail          variables
c
c u 26.57 30 164 0 34 12613 23 132786 17542 2.8 19 7 2 5 27% 12111 78865 12823 34%
c v 26.62 30 164 0 34 12613 23 132786 17053 2.8 19 7 2 5 27% 12111 78865 12823 34%
c w 26.71 30 164 0 34 12613 23 132786 16874 2.8 19 7 2 5 27% 12111 78865 12823 34%
c x 26.80 30 164 0 34 12613 23 132786 16864 2.8 19 7 2 5 27% 12192 76547 12823 34%
c t 27.26 30 164 0 34 12613 23 132786 16864 2.8 19 7 2 5 27% 12179 76547 12823 34%
c i 27.27 30 164 0 34 12613 23 132786 16864 2.8 19 7 2 5 27% 12179 76547 12823 34%
c i 27.32 30 162 0 34 12663 22 133941 17793 2.8 19 7 2 5 27% 12200 76540 12822 34%
c i 27.32 30 162 0 34 12671 22 134020 17859 2.8 19 7 2 5 27% 12201 76539 12821 34%
c i 27.32 30 162 0 34 12671 22 134038 17862 2.8 19 7 2 5 27% 12206 76539 12820 34%
c i 27.32 30 162 0 34 12671 22 134111 17907 2.8 19 7 2 5 27% 12209 76539 12818 34%
c i 27.32 30 162 0 34 12671 22 134165 17926 2.8 19 7 2 5 27% 12216 76539 12817 34%
c i 27.32 30 162 0 34 12671 22 134193 17944 2.8 19 7 2 5 27% 12218 76539 12816 34%
c i 27.32 30 162 0 34 12671 22 134199 17944 2.8 19 7 2 5 27% 12220 76539 12810 34%
c i 27.32 30 162 0 34 12671 22 134205 17946 2.8 19 7 2 5 27% 12222 76538 12806 34%
c } 27.32 30 162 0 34 12671 22 134207 17946 2.8 19 7 2 5 27% 12222 76538 12781 34%
c 0 27.32 30 162 0 34 12671 22 134207 17946 2.8 19 7 2 5 27% 12222 76538 12781 34%
c
c ---- [ result ] ------------------------------------------------------------
c
s UNSATISFIABLE
c
c ---- [ profiling ] ---------------------------------------------------------
c
c          18.02   65.94 %  search
c          18.02   65.93 %  focused
c           8.83   32.31 %  simplify
c           8.52   31.20 %  probe
c           3.58   13.12 %  sweep
c           3.03   11.07 %  vivify
c           0.77    2.80 %  factor
c           0.59    2.15 %  eliminate
c           0.50    1.82 %  substitute
c           0.44    1.62 %  congruence
c           0.42    1.54 %  preprocess
c           0.17    0.64 %  reduce
c           0.14    0.52 %  transitive
c           0.13    0.47 %  fastel
c           0.12    0.45 %  subsume
c           0.07    0.25 %  backbone
c           0.03    0.12 %  lucky
c           0.03    0.09 %  parse
c =============================================
c          27.33  100.00 %  total
c
c ---- [ statistics ] --------------------------------------------------------
c
c chronological:                         5498                4 %  conflicts
c conflicts:                           134207             4911.42 per second
c congruent:                             4728               13 %  variables
c decisions:                          2987938               22.26 per conflict
c eliminated:                           17440               46 %  variables
c factored:                              4116               11 %  variables
c fast_eliminated:                       9339               54 %  eliminated
c fast_strengthened:                      378               11 %  per strengthened
c fast_subsumed:                          249                2 %  per subsumed
c iterations:                              22                0 %  variables
c propagations:                     138473095          5067540    per second
c reductions:                              34             3947    interval
c reordered:                                5            26841    interval
c restarts:                             12671               11    interval
c strengthened:                          3378                0 %  checks
c substituted:                          11382               30 %  variables
c subsumed:                             15285                1 %  checks
c switched:                                 0                0    interval
c vivified:                             84629               16 %  checks
c
c ---- [ glue usage ] --------------------------------------------------------
c
c focused glue 2 used 71703 clauses 23.68% accumulated 73.29% tier1
c focused glue 3 used 32035 clauses 10.58% accumulated 83.87%
c focused glue 4 used 14886 clauses  4.92% accumulated 88.79%
c focused glue 5 used  9048 clauses  2.99% accumulated 91.77% tier2
c
c ---- [ resources ] ---------------------------------------------------------
c
c maximum-resident-set-size:         31817728 bytes         30 MB
c process-time:                            27s              27.33 seconds
c
c ---- [ shutting down ] -----------------------------------------------------
c
c exit 20
